N = 7;
Capacity = 4;
ItemsPerCustomer = [4, 7, 7, 2, 7, 7, 3];
maxItemsPerCustomer = 7;
binCapacity = 50;
SizesOfItems = [|
  40, 23, 13, 11, 0, 0, 0
| 37, 33, 27, 18, 16, 15, 14
| 35, 32, 20, 15, 14, 12, 10
| 27, 19, 0, 0, 0, 0, 0
| 39, 35, 35, 31, 30, 16, 12
| 50, 50, 50, 50, 50, 50, 50
| 32, 31, 22, 0, 0, 0, 0
|];
Distance = [|
  0, 53, 36, 39, 35, 22, 41, 37
| 53, 0, 86, 79, 29, 70, 34, 22
| 36, 86, 0, 22, 62, 16, 65, 73
| 39, 79, 22, 0, 51, 18, 52, 72
| 35, 29, 62, 51, 0, 46, 8, 32
| 22, 70, 16, 18, 46, 0, 49, 58
| 41, 34, 65, 52, 8, 49, 0, 40
| 37, 22, 73, 72, 32, 58, 40, 0
|];
